100 3491
885 831 1064 488 949 1074 911 1149 1132 786 963 1030 506 807 691 1008 634 663 980 439 1133 825 545 833 899 598 938 1100 736 1151 1054 495 1041 258 1053 933 1048 451 800 708 705 999 1153 801 1113 244 919 1030 1104 853 359 173 436 607 1019 1011 782 868 904 717 692 517 647 999 923 552 302 278 696 781 278 825 938 1110 1119 393 942 922 758 1040 1096 1099 1078 891 959 692 825 956 679 1022 950 1017 1084 1076 1058 1013 933 813 683 994 
505 437 795 139 596 816 540 986 945 385 618 730 150 409 290 691 241 265 645 112 948 430 175 439 524 213 579 870 333 991 776 143 751 38 774 572 764 118 401 306 303 676 996 402 901 34 551 731 879 464 74 17 110 220 711 697 381 483 531 314 291 157 252 676 557 180 52 44 295 380 44 430 580 892 913 89 585 556 355 750 862 869 824 513 612 291 429 606 279 717 597 708 836 819 783 701 572 415 283 667 
